NAME: CMT2_7
TYPE: CVRP
COMMENT: 835.26 - Cluster Nr.7
DIMENSION: 8
CAPACITY: 140
EDGE_WEIGHT_TYPE: EUC_2D
NODE_COORD_TYPE: TWOD_COORDS
NODE_COORD_SECTION: 
3 40 40
5 60 15
6 54 10
7 66 8
1 66 14
4 50 4
8 59 5
2 64 4
DEPOT_SECTION: 
3
-1
DEMAND_SECTION: 
3 0
8 3
4 8
7 11
6 12
1 22
2 13
5 14
EOF
